NAME : A-n13-k6
COMMENT :
TYPE : CVRP
DIMENSION : 13
EDGE_WEIGHT_TYPE : EUC_2D 
CAPACITY : 100
NODE_COORD_SECTION 
 1 34 31
 2 45 55
 3 70 80
 4 81 70
 5 85 61
 6 59 55
 7 45 60
 8 50 64
 9 80 64
 10 75 90
 11 25 40
 12 9 66
 13 1 44
DEMAND_SECTION 
1 0 
2 26 
3 17 
4 6 
5 15 
6 7 
7 5 
8 15 
9 16 
10 17 
11 1 
12 21 
13 20
DEPOT_SECTION 
 1  
 -1  
EOF 
